
Gurobi 11.0.3 (mac64[arm], gurobi_cl) logging started Mon Nov  4 09:47:49 2024

Set parameter TimeLimit to value 600
Set parameter NoRelHeurTime to value 600
Set parameter LogFile to value "gurobi.log"
Using license file /Users/sakai/gurobi.lic
Restricted license - for non-production use only - expires 2025-11-24

Gurobi Optimizer version 11.0.3 build v11.0.3rc0 (mac64[arm] - Darwin 22.6.0 22H123)
Copyright (c) 2024, Gurobi Optimization, LLC

Read LP format model from file ../../../miplib2024_submission/instances.20241102/bnn_mnist_back_image_32_label3_adversarial_norm_2.lp
Reading time = 0.08 seconds
: 1092 rows, 1295 columns, 397843 nonzeros

CPU model: Apple M1
Thread count: 8 physical cores, 8 logical processors, using up to 8 threads

Optimize a model with 1092 rows, 1295 columns and 397843 nonzeros
Model fingerprint: 0x0457a5fc
Variable types: 1 continuous, 1294 integer (1294 binary)
Coefficient statistics:
  Matrix range     [1e+00, 4e+02]
  Objective range  [1e+00, 9e+05]
  Bounds range     [1e+00, 1e+00]
  RHS range        [1e+00, 4e+02]
Presolve removed 12 rows and 3 columns
Presolve time: 0.92s
Presolved: 1080 rows, 1292 columns, 397275 nonzeros
Variable types: 0 continuous, 1292 integer (1292 binary)
Starting NoRel heuristic
Found phase-1 solution: relaxation 222
Found phase-1 solution: relaxation 218
Found phase-1 solution: relaxation 193
Found phase-1 solution: relaxation 186
Found phase-1 solution: relaxation 180
Found phase-1 solution: relaxation 148
Found phase-1 solution: relaxation 118
Found phase-1 solution: relaxation 97
Found phase-1 solution: relaxation 90
Found phase-1 solution: relaxation 86
Found phase-1 solution: relaxation 57
Found phase-1 solution: relaxation 34
Found phase-1 solution: relaxation 0
Found heuristic solution: objective 1213916.0000
Transition to phase 2
Found heuristic solution: objective 928272.00000
Elapsed time for NoRel heuristic: 5s (best bound 0)
Found heuristic solution: objective 820357.00000
Found heuristic solution: objective 763728.00000
Found heuristic solution: objective 702301.00000
Found heuristic solution: objective 632504.00000
Found heuristic solution: objective 565078.00000
Found heuristic solution: objective 564622.00000
Found heuristic solution: objective 526272.00000
Found heuristic solution: objective 471178.00000
Found heuristic solution: objective 445679.00000
Found heuristic solution: objective 443780.00000
Found heuristic solution: objective 426530.00000
Found heuristic solution: objective 413561.00000
Found heuristic solution: objective 409015.00000
Elapsed time for NoRel heuristic: 10s (best bound 0)
Elapsed time for NoRel heuristic: 21s (best bound 0)
Found heuristic solution: objective 377480.00000
Found heuristic solution: objective 364823.00000
Elapsed time for NoRel heuristic: 26s (best bound 0)
Found heuristic solution: objective 358178.00000
Found heuristic solution: objective 355991.00000
Found heuristic solution: objective 346441.00000
Elapsed time for NoRel heuristic: 33s (best bound 0)
Found heuristic solution: objective 344320.00000
Found heuristic solution: objective 314741.00000
Elapsed time for NoRel heuristic: 39s (best bound 0)
Elapsed time for NoRel heuristic: 49s (best bound 0)
Elapsed time for NoRel heuristic: 71s (best bound 0)
Elapsed time for NoRel heuristic: 80s (best bound 0)
Found heuristic solution: objective 308716.00000
Found heuristic solution: objective 286593.00000
Elapsed time for NoRel heuristic: 98s (best bound 0)
Found heuristic solution: objective 285012.00000
Elapsed time for NoRel heuristic: 103s (best bound 0)
Found heuristic solution: objective 282568.00000
Elapsed time for NoRel heuristic: 116s (best bound 0)
Found heuristic solution: objective 269115.00000
Elapsed time for NoRel heuristic: 126s (best bound 0)
Found heuristic solution: objective 254943.00000
Elapsed time for NoRel heuristic: 133s (best bound 0)
Found heuristic solution: objective 239749.00000
Found heuristic solution: objective 234278.00000
Found heuristic solution: objective 228757.00000
Elapsed time for NoRel heuristic: 142s (best bound 0)
Found heuristic solution: objective 223376.00000
Elapsed time for NoRel heuristic: 149s (best bound 0)
Found heuristic solution: objective 189843.00000
Elapsed time for NoRel heuristic: 155s (best bound 0)
Found heuristic solution: objective 189767.00000
Found heuristic solution: objective 182862.00000
Found heuristic solution: objective 177141.00000
Elapsed time for NoRel heuristic: 165s (best bound 0)
Found heuristic solution: objective 174717.00000
Found heuristic solution: objective 170904.00000
Found heuristic solution: objective 162230.00000
Elapsed time for NoRel heuristic: 171s (best bound 0)
Elapsed time for NoRel heuristic: 178s (best bound 0)
Found heuristic solution: objective 142089.00000
Found heuristic solution: objective 124012.00000
Elapsed time for NoRel heuristic: 189s (best bound 0)
Found heuristic solution: objective 114825.00000
Found heuristic solution: objective 92309.000000
Elapsed time for NoRel heuristic: 197s (best bound 0)
Found heuristic solution: objective 88525.000000
Found heuristic solution: objective 77340.000000
Elapsed time for NoRel heuristic: 205s (best bound 0)
Found heuristic solution: objective 65076.000000
Found heuristic solution: objective 61023.000000
Elapsed time for NoRel heuristic: 211s (best bound 0)
Found heuristic solution: objective 59508.000000
Found heuristic solution: objective 58788.000000
Elapsed time for NoRel heuristic: 220s (best bound 0)
Found heuristic solution: objective 52502.000000
Found heuristic solution: objective 49016.000000
Elapsed time for NoRel heuristic: 226s (best bound 0)
Found heuristic solution: objective 44064.000000
Found heuristic solution: objective 32873.000000
Elapsed time for NoRel heuristic: 236s (best bound 0)
Found heuristic solution: objective 24570.000000
Found heuristic solution: objective 11721.000000
Elapsed time for NoRel heuristic: 243s (best bound 0)
Found heuristic solution: objective 11349.000000
Found heuristic solution: objective 7232.0000000
Elapsed time for NoRel heuristic: 251s (best bound 0)
Found heuristic solution: objective 6932.0000000
Found heuristic solution: objective 6230.0000000
Found heuristic solution: objective 3791.0000000
Elapsed time for NoRel heuristic: 257s (best bound 0)
Found heuristic solution: objective 3109.0000000
Found heuristic solution: objective 2551.0000000
Found heuristic solution: objective 2074.0000000
Elapsed time for NoRel heuristic: 263s (best bound 0)
Found heuristic solution: objective 2041.0000000
Found heuristic solution: objective 1727.0000000
Elapsed time for NoRel heuristic: 273s (best bound 0)
Found heuristic solution: objective 1682.0000000
Found heuristic solution: objective 1204.0000000
Found heuristic solution: objective 1011.0000000
Found heuristic solution: objective 753.0000000
Elapsed time for NoRel heuristic: 280s (best bound 0)
Found heuristic solution: objective 478.0000000
Found heuristic solution: objective 128.0000000
Found heuristic solution: objective 81.0000000
Elapsed time for NoRel heuristic: 288s (best bound 0)
Found heuristic solution: objective 72.0000000
Elapsed time for NoRel heuristic: 294s (best bound 0)
Found heuristic solution: objective 48.0000000
Elapsed time for NoRel heuristic: 303s (best bound 0)
Found heuristic solution: objective 42.0000000
Found heuristic solution: objective 34.0000000
Elapsed time for NoRel heuristic: 309s (best bound 0)
Elapsed time for NoRel heuristic: 315s (best bound 0)
Found heuristic solution: objective 24.0000000
Elapsed time for NoRel heuristic: 322s (best bound 0)
Found heuristic solution: objective 23.0000000
Found heuristic solution: objective 11.0000000
Elapsed time for NoRel heuristic: 328s (best bound 0)
Found heuristic solution: objective 10.0000000
Found heuristic solution: objective 9.0000000
Elapsed time for NoRel heuristic: 334s (best bound 0)
Elapsed time for NoRel heuristic: 347s (best bound 0)
Elapsed time for NoRel heuristic: 362s (best bound 0)
Elapsed time for NoRel heuristic: 389s (best bound 0)
Elapsed time for NoRel heuristic: 402s (best bound 0)
Elapsed time for NoRel heuristic: 414s (best bound 0)
Elapsed time for NoRel heuristic: 439s (best bound 0)
Elapsed time for NoRel heuristic: 454s (best bound 0)
Elapsed time for NoRel heuristic: 471s (best bound 0)
Elapsed time for NoRel heuristic: 509s (best bound 0)
Elapsed time for NoRel heuristic: 533s (best bound 0)
Found heuristic solution: objective 8.0000000
Elapsed time for NoRel heuristic: 547s (best bound 0)
Elapsed time for NoRel heuristic: 554s (best bound 0)
Elapsed time for NoRel heuristic: 560s (best bound 0)
Elapsed time for NoRel heuristic: 567s (best bound 0)
Elapsed time for NoRel heuristic: 599s (best bound 0)
NoRel heuristic complete

Explored 0 nodes (0 simplex iterations) in 600.01 seconds (481.69 work units)
Thread count was 8 (of 8 available processors)

Solution count 10: 8 9 10 ... 72

Time limit reached
Best objective 8.000000000000e+00, best bound 0.000000000000e+00, gap 100.0000%

Wrote result file 'bnn_mnist_back_image_32_label3_adversarial_norm_2.sol'

